200
1000
380
378
377
377
376
375
372
370
366
364
364
362
357
357
357
356
354
354
352
350
350
346
346
343
342
341
341
340
338
334
332
332
332
330
329
328
326
326
322
321
320
319
318
318
317
314
313
305
304
303
302
300
293
292
292
291
288
287
287
286
285
284
280
277
276
275
275
262
261
259
259
258
257
253
249
249
248
242
237
236
232
230
230
229
229
224
223
220
217
217
217
216
215
214
209
207
206
205
203
203
202
200
200
200
196
196
194
192
189
188
186
186
182
182
182
181
181
177
175
174
172
168
164
160
160
160
159
157
156
156
154
152
151
148
146
145
138
136
135
134
134
132
131
129
127
125
124
123
119
115
112
107
106
105
105
104
102
99
98
98
96
93
93
89
87
86
84
82
79
79
78
77
77
70
70
69
69
67
65
60
59
59
59
56
53
50
49
49
47
43
43
42
38
37
32
32
31
30
28
24
